Maximize
F 

Subject to
F - 12.0y76 - 3.0y259 - 12.0y15 - 12.0y224 - 12.0y77 - 3.0y83 - 6.0y89 - 12.0y119 - 6.0y312 - 12.0y169 - 3.0y161 - 12.0y6 - 3.0y265 - 6.0y47 - 9.0y185 - 12.0y255 - 9.0y18 - 3.0y25 - 6.0y210 - 3.0y213 - 12.0y313 = 0

x237x210x1 + x237x313x1 
<= 2
x121x312x1 + x121x169x1 + x121x6x1 + x121x265x1 + x121x47x1 + x121x185x1 + x121x255x1 + x121x18x1 + x121x25x1 + x121x210x1 + x121x213x1 + x121x313x1 
<= 1
x171x15x1 + x171x224x1 + x171x77x1 + x171x83x1 + x171x312x1 + x171x169x1 + x171x6x1 + x171x265x1 + x171x47x1 + x171x185x1 + x171x255x1 + x171x18x1 + x171x25x1 + x171x210x1 + x171x213x1 + x171x313x1 
<= 1
x327x6x1 + x327x265x1 + x327x47x1 + x327x185x1 + x327x255x1 + x327x18x1 + x327x25x1 + x327x210x1 + x327x213x1 + x327x313x1 
<= 1
x78x6x1 + x78x265x1 + x78x47x1 + x78x185x1 + x78x255x1 + x78x18x1 + x78x25x1 + x78x210x1 + x78x213x1 + x78x313x1 
<= 1
x19x185x1 + x19x18x1 + x19x25x1 + x19x210x1 + x19x213x1 + x19x313x1 
<= 1
x148x6x1 + x148x265x1 + x148x47x1 + x148x185x1 + x148x255x1 + x148x18x1 + x148x25x1 + x148x210x1 + x148x213x1 + x148x313x1 
<= 1

x121x169x2 + x121x161x2 + x121x47x2 + x121x25x2 + x121x213x2 
<= 1
x40x161x2 + x40x47x2 + x40x25x2 + x40x213x2 
<= 1
x32x161x2 + x32x47x2 + x32x25x2 + x32x213x2 
<= 2
x327x161x2 + x327x47x2 + x327x25x2 + x327x213x2 
<= 1
x78x161x2 + x78x47x2 + x78x25x2 + x78x213x2 
<= 1
x40x161x3 + x40x6x3 + x40x18x3 + x40x210x3 
<= 1
x19x18x3 + x19x210x3 
<= 1
x67x18x3 + x67x210x3 
<= 2
x148x6x3 + x148x18x3 + x148x210x3 
<= 1



- x76x119x2 - x76x169x2 - x76x161x2 - x76x47x2 - x76x25x2 - x76x213x2 
= 0




- x259x119x2 - x259x169x2 - x259x161x2 - x259x47x2 - x259x25x2 - x259x213x2 
= 0


x171x15x1 
- x15x0x1
- x15x83x1 - x15x6x1 - x15x265x1 - x15x47x1 - x15x185x1 - x15x255x1 - x15x18x1 - x15x25x1 - x15x210x1 - x15x213x1 - x15x313x1 
= 0



x171x224x1 
- x224x0x1
- x224x83x1 - x224x6x1 - x224x265x1 - x224x47x1 - x224x185x1 - x224x255x1 - x224x18x1 - x224x25x1 - x224x210x1 - x224x213x1 - x224x313x1 
= 0



x171x77x1 
- x77x0x1
- x77x312x1 - x77x169x1 - x77x6x1 - x77x265x1 - x77x47x1 - x77x185x1 - x77x255x1 - x77x18x1 - x77x25x1 - x77x210x1 - x77x213x1 - x77x313x1 
= 0


- x77x119x3 - x77x312x3 - x77x161x3 - x77x6x3 - x77x18x3 - x77x210x3 
= 0

x171x83x1 + x15x83x1 + x224x83x1 
- x83x0x1
- x83x265x1 - x83x47x1 - x83x185x1 - x83x255x1 - x83x18x1 - x83x25x1 - x83x210x1 - x83x213x1 - x83x313x1 
= 0





- x89x47x2 - x89x25x2 - x89x213x2 
= 0



x76x119x2 + x259x119x2 
- x119x0x2
- x119x169x2 - x119x161x2 - x119x47x2 - x119x25x2 - x119x213x2 
= 0
x77x119x3 
- x119x0x3
- x119x161x3 - x119x6x3 - x119x18x3 - x119x210x3 
= 0

x121x312x1 + x171x312x1 + x77x312x1 
- x312x0x1
- x312x169x1 - x312x6x1 - x312x265x1 - x312x47x1 - x312x255x1 - x312x18x1 - x312x25x1 - x312x210x1 - x312x213x1 - x312x313x1 
= 0

x77x312x3 
- x312x0x3
- x312x161x3 - x312x6x3 - x312x18x3 - x312x210x3 
= 0

x121x169x1 + x171x169x1 + x77x169x1 + x312x169x1 
- x169x0x1
- x169x6x1 - x169x265x1 - x169x47x1 - x169x255x1 - x169x25x1 - x169x210x1 - x169x213x1 - x169x313x1 
= 0
x121x169x2 + x76x169x2 + x259x169x2 + x119x169x2 
- x169x0x2
- x169x47x2 - x169x25x2 - x169x213x2 
= 0



x121x161x2 + x40x161x2 + x32x161x2 + x327x161x2 + x78x161x2 + x76x161x2 + x259x161x2 + x119x161x2 
- x161x0x2
- x161x47x2 - x161x25x2 
= 0
x40x161x3 + x77x161x3 + x119x161x3 + x312x161x3 
- x161x0x3
- x161x210x3 
= 0

x121x6x1 + x171x6x1 + x327x6x1 + x78x6x1 + x148x6x1 + x15x6x1 + x224x6x1 + x77x6x1 + x312x6x1 + x169x6x1 
- x6x0x1
- x6x265x1 - x6x47x1 - x6x255x1 - x6x25x1 - x6x210x1 - x6x313x1 
= 0

x40x6x3 + x148x6x3 + x77x6x3 + x119x6x3 + x312x6x3 
- x6x0x3
- x6x210x3 
= 0

x121x265x1 + x171x265x1 + x327x265x1 + x78x265x1 + x148x265x1 + x15x265x1 + x224x265x1 + x77x265x1 + x83x265x1 + x312x265x1 + x169x265x1 + x6x265x1 
- x265x0x1
- x265x47x1 - x265x255x1 - x265x25x1 - x265x210x1 - x265x313x1 
= 0



x121x47x1 + x171x47x1 + x327x47x1 + x78x47x1 + x148x47x1 + x15x47x1 + x224x47x1 + x77x47x1 + x83x47x1 + x312x47x1 + x169x47x1 + x6x47x1 + x265x47x1 
- x47x0x1
- x47x255x1 - x47x25x1 - x47x210x1 - x47x313x1 
= 0
x121x47x2 + x40x47x2 + x32x47x2 + x327x47x2 + x78x47x2 + x76x47x2 + x259x47x2 + x89x47x2 + x119x47x2 + x169x47x2 + x161x47x2 
- x47x0x2
- x47x25x2 
= 0


x121x185x1 + x171x185x1 + x327x185x1 + x78x185x1 + x19x185x1 + x148x185x1 + x15x185x1 + x224x185x1 + x77x185x1 + x83x185x1 
- x185x0x1
- x185x18x1 - x185x213x1 
= 0



x121x255x1 + x171x255x1 + x327x255x1 + x78x255x1 + x148x255x1 + x15x255x1 + x224x255x1 + x77x255x1 + x83x255x1 + x312x255x1 + x169x255x1 + x6x255x1 + x265x255x1 + x47x255x1 
- x255x0x1
- x255x25x1 - x255x210x1 - x255x313x1 
= 0



x121x18x1 + x171x18x1 + x327x18x1 + x78x18x1 + x19x18x1 + x148x18x1 + x15x18x1 + x224x18x1 + x77x18x1 + x83x18x1 + x312x18x1 + x185x18x1 
- x18x0x1
- x18x213x1 
= 0

x40x18x3 + x19x18x3 + x67x18x3 + x148x18x3 + x77x18x3 + x119x18x3 + x312x18x3 
- x18x0x3

= 0

x121x25x1 + x171x25x1 + x327x25x1 + x78x25x1 + x19x25x1 + x148x25x1 + x15x25x1 + x224x25x1 + x77x25x1 + x83x25x1 + x312x25x1 + x169x25x1 + x6x25x1 + x265x25x1 + x47x25x1 + x255x25x1 
- x25x0x1
- x25x210x1 - x25x313x1 
= 0
x121x25x2 + x40x25x2 + x32x25x2 + x327x25x2 + x78x25x2 + x76x25x2 + x259x25x2 + x89x25x2 + x119x25x2 + x169x25x2 + x161x25x2 + x47x25x2 
- x25x0x2

= 0


x237x210x1 + x121x210x1 + x171x210x1 + x327x210x1 + x78x210x1 + x19x210x1 + x148x210x1 + x15x210x1 + x224x210x1 + x77x210x1 + x83x210x1 + x312x210x1 + x169x210x1 + x6x210x1 + x265x210x1 + x47x210x1 + x255x210x1 + x25x210x1 
- x210x0x1
- x210x313x1 
= 0

x40x210x3 + x19x210x3 + x67x210x3 + x148x210x3 + x77x210x3 + x119x210x3 + x312x210x3 + x161x210x3 + x6x210x3 
- x210x0x3

= 0

x121x213x1 + x171x213x1 + x327x213x1 + x78x213x1 + x19x213x1 + x148x213x1 + x15x213x1 + x224x213x1 + x77x213x1 + x83x213x1 + x312x213x1 + x169x213x1 + x185x213x1 + x18x213x1 
- x213x0x1

= 0
x121x213x2 + x40x213x2 + x32x213x2 + x327x213x2 + x78x213x2 + x76x213x2 + x259x213x2 + x89x213x2 + x119x213x2 + x169x213x2 
- x213x0x2

= 0


x237x313x1 + x121x313x1 + x171x313x1 + x327x313x1 + x78x313x1 + x19x313x1 + x148x313x1 + x15x313x1 + x224x313x1 + x77x313x1 + x83x313x1 + x312x313x1 + x169x313x1 + x6x313x1 + x265x313x1 + x47x313x1 + x255x313x1 + x25x313x1 + x210x313x1 
- x313x0x1

= 0



2y76 = 0
2y259 = 0
2y15 - x171x15x1 = 0
2y224 - x171x224x1 = 0
1y77 - x171x77x1 = 0
1y77 = 0
2y83 - x171x83x1 - x15x83x1 - x224x83x1 = 0
2y89 = 0
1y119 - x76x119x2 - x259x119x2 = 0
1y119 - x77x119x3 = 0
1y312 - x121x312x1 - x171x312x1 - x77x312x1 = 0
1y312 - x77x312x3 = 0
1y169 - x121x169x1 - x171x169x1 - x77x169x1 - x312x169x1 = 0
1y169 - x121x169x2 - x76x169x2 - x259x169x2 - x119x169x2 = 0
1y161 - x121x161x2 - x40x161x2 - x32x161x2 - x327x161x2 - x78x161x2 - x76x161x2 - x259x161x2 - x119x161x2 = 0
1y161 - x40x161x3 - x77x161x3 - x119x161x3 - x312x161x3 = 0
1y6 - x121x6x1 - x171x6x1 - x327x6x1 - x78x6x1 - x148x6x1 - x15x6x1 - x224x6x1 - x77x6x1 - x312x6x1 - x169x6x1 = 0
1y6 - x40x6x3 - x148x6x3 - x77x6x3 - x119x6x3 - x312x6x3 = 0
2y265 - x121x265x1 - x171x265x1 - x327x265x1 - x78x265x1 - x148x265x1 - x15x265x1 - x224x265x1 - x77x265x1 - x83x265x1 - x312x265x1 - x169x265x1 - x6x265x1 = 0
1y47 - x121x47x1 - x171x47x1 - x327x47x1 - x78x47x1 - x148x47x1 - x15x47x1 - x224x47x1 - x77x47x1 - x83x47x1 - x312x47x1 - x169x47x1 - x6x47x1 - x265x47x1 = 0
1y47 - x121x47x2 - x40x47x2 - x32x47x2 - x327x47x2 - x78x47x2 - x76x47x2 - x259x47x2 - x89x47x2 - x119x47x2 - x169x47x2 - x161x47x2 = 0
2y185 - x121x185x1 - x171x185x1 - x327x185x1 - x78x185x1 - x19x185x1 - x148x185x1 - x15x185x1 - x224x185x1 - x77x185x1 - x83x185x1 = 0
2y255 - x121x255x1 - x171x255x1 - x327x255x1 - x78x255x1 - x148x255x1 - x15x255x1 - x224x255x1 - x77x255x1 - x83x255x1 - x312x255x1 - x169x255x1 - x6x255x1 - x265x255x1 - x47x255x1 = 0
1y18 - x121x18x1 - x171x18x1 - x327x18x1 - x78x18x1 - x19x18x1 - x148x18x1 - x15x18x1 - x224x18x1 - x77x18x1 - x83x18x1 - x312x18x1 - x185x18x1 = 0
1y18 - x40x18x3 - x19x18x3 - x67x18x3 - x148x18x3 - x77x18x3 - x119x18x3 - x312x18x3 = 0
1y25 - x121x25x1 - x171x25x1 - x327x25x1 - x78x25x1 - x19x25x1 - x148x25x1 - x15x25x1 - x224x25x1 - x77x25x1 - x83x25x1 - x312x25x1 - x169x25x1 - x6x25x1 - x265x25x1 - x47x25x1 - x255x25x1 = 0
1y25 - x121x25x2 - x40x25x2 - x32x25x2 - x327x25x2 - x78x25x2 - x76x25x2 - x259x25x2 - x89x25x2 - x119x25x2 - x169x25x2 - x161x25x2 - x47x25x2 = 0
1y210 - x237x210x1 - x121x210x1 - x171x210x1 - x327x210x1 - x78x210x1 - x19x210x1 - x148x210x1 - x15x210x1 - x224x210x1 - x77x210x1 - x83x210x1 - x312x210x1 - x169x210x1 - x6x210x1 - x265x210x1 - x47x210x1 - x255x210x1 - x25x210x1 = 0
1y210 - x40x210x3 - x19x210x3 - x67x210x3 - x148x210x3 - x77x210x3 - x119x210x3 - x312x210x3 - x161x210x3 - x6x210x3 = 0
1y213 - x121x213x1 - x171x213x1 - x327x213x1 - x78x213x1 - x19x213x1 - x148x213x1 - x15x213x1 - x224x213x1 - x77x213x1 - x83x213x1 - x312x213x1 - x169x213x1 - x185x213x1 - x18x213x1 = 0
1y213 - x121x213x2 - x40x213x2 - x32x213x2 - x327x213x2 - x78x213x2 - x76x213x2 - x259x213x2 - x89x213x2 - x119x213x2 - x169x213x2 = 0
2y313 - x237x313x1 - x121x313x1 - x171x313x1 - x327x313x1 - x78x313x1 - x19x313x1 - x148x313x1 - x15x313x1 - x224x313x1 - x77x313x1 - x83x313x1 - x312x313x1 - x169x313x1 - x6x313x1 - x265x313x1 - x47x313x1 - x255x313x1 - x25x313x1 - x210x313x1 = 0

s237 - s210 + 9.394622z237z210z1 <= 8.20
s237 - s313 + 9.399104z237z313z1 <= 8.20
s121 - s312 + 8.876144z121z312z1 <= 7.41
s121 - s169 + 8.896279z121z169z1 <= 7.41
s121 - s169 + 8.896279z121z169z2 <= 7.41
s121 - s161 + 8.857884z121z161z2 <= 7.41
s121 - s6 + 8.922936z121z6z1 <= 7.41
s121 - s265 + 8.911603z121z265z1 <= 7.41
s121 - s47 + 8.944262z121z47z1 <= 7.41
s121 - s47 + 8.944262z121z47z2 <= 7.41
s121 - s185 + 9.034250z121z185z1 <= 7.41
s121 - s255 + 8.938160z121z255z1 <= 7.41
s121 - s18 + 9.043640z121z18z1 <= 7.41
s121 - s25 + 8.920464z121z25z1 <= 7.41
s121 - s25 + 8.920464z121z25z2 <= 7.41
s121 - s210 + 8.922374z121z210z1 <= 7.41
s121 - s213 + 9.063307z121z213z1 <= 7.41
s121 - s213 + 9.063307z121z213z2 <= 7.41
s121 - s313 + 8.916885z121z313z1 <= 7.41
s171 - s15 + 8.528763z171z15z1 <= 6.93
s171 - s224 + 8.534276z171z224z1 <= 6.93
s171 - s77 + 8.429438z171z77z1 <= 6.93
s171 - s83 + 8.552250z171z83z1 <= 6.93
s171 - s312 + 8.408360z171z312z1 <= 6.93
s171 - s169 + 8.428313z171z169z1 <= 6.93
s171 - s6 + 8.454980z171z6z1 <= 6.93
s171 - s265 + 8.442741z171z265z1 <= 6.93
s171 - s47 + 8.475637z171z47z1 <= 6.93
s171 - s185 + 8.573485z171z185z1 <= 6.93
s171 - s255 + 8.469354z171z255z1 <= 6.93
s171 - s18 + 8.582882z171z18z1 <= 6.93
s171 - s25 + 8.451077z171z25z1 <= 6.93
s171 - s210 + 8.452624z171z210z1 <= 6.93
s171 - s213 + 8.602480z171z213z1 <= 6.93
s171 - s313 + 8.446926z171z313z1 <= 6.93
s40 - s161 + 9.006683z40z161z2 <= 7.44
s40 - s161 + 9.006683z40z161z3 <= 7.44
s40 - s6 + 9.042143z40z6z3 <= 7.44
s40 - s47 + 9.074009z40z47z2 <= 7.44
s40 - s18 + 8.906734z40z18z3 <= 7.44
s40 - s25 + 9.069540z40z25z2 <= 7.44
s40 - s210 + 9.078171z40z210z3 <= 7.44
s40 - s213 + 8.927490z40z213z2 <= 7.44
s32 - s161 + 8.997732z32z161z2 <= 7.46
s32 - s47 + 9.064024z32z47z2 <= 7.46
s32 - s25 + 9.060185z32z25z2 <= 7.46
s32 - s213 + 8.921543z32z213z2 <= 7.46
s327 - s161 + 9.023853z327z161z2 <= 7.43
s327 - s6 + 9.058566z327z6z1 <= 7.43
s327 - s265 + 9.068550z327z265z1 <= 7.43
s327 - s47 + 9.090555z327z47z1 <= 7.43
s327 - s47 + 9.090555z327z47z2 <= 7.43
s327 - s185 + 8.904230z327z185z1 <= 7.43
s327 - s255 + 9.089345z327z255z1 <= 7.43
s327 - s18 + 8.911473z327z18z1 <= 7.43
s327 - s25 + 9.086512z327z25z1 <= 7.43
s327 - s25 + 9.086512z327z25z2 <= 7.43
s327 - s210 + 9.095243z327z210z1 <= 7.43
s327 - s213 + 8.932047z327z213z1 <= 7.43
s327 - s213 + 8.932047z327z213z2 <= 7.43
s327 - s313 + 9.094709z327z313z1 <= 7.43
s78 - s161 + 9.023682z78z161z2 <= 7.46
s78 - s6 + 9.056173z78z6z1 <= 7.46
s78 - s265 + 9.067265z78z265z1 <= 7.46
s78 - s47 + 9.088434z78z47z1 <= 7.46
s78 - s47 + 9.088434z78z47z2 <= 7.46
s78 - s185 + 8.898529z78z185z1 <= 7.46
s78 - s255 + 9.087510z78z255z1 <= 7.46
s78 - s18 + 8.905910z78z18z1 <= 7.46
s78 - s25 + 9.085587z78z25z1 <= 7.46
s78 - s25 + 9.085587z78z25z2 <= 7.46
s78 - s210 + 9.094653z78z210z1 <= 7.46
s78 - s213 + 8.926586z78z213z1 <= 7.46
s78 - s213 + 8.926586z78z213z2 <= 7.46
s78 - s313 + 9.094442z78z313z1 <= 7.46
s19 - s185 + 9.141648z19z185z1 <= 7.77
s19 - s18 + 9.148714z19z18z1 <= 7.77
s19 - s18 + 9.148714z19z18z3 <= 7.77
s19 - s25 + 9.367373z19z25z1 <= 7.77
s19 - s210 + 9.377370z19z210z1 <= 7.77
s19 - s210 + 9.377370z19z210z3 <= 7.77
s19 - s213 + 9.169167z19z213z1 <= 7.77
s19 - s313 + 9.378098z19z313z1 <= 7.77
s67 - s18 + 9.049411z67z18z3 <= 7.82
s67 - s210 + 9.295469z67z210z3 <= 7.82
s148 - s6 + 9.070457z148z6z1 <= 7.68
s148 - s6 + 9.070457z148z6z3 <= 7.68
s148 - s265 + 9.092125z148z265z1 <= 7.68
s148 - s47 + 9.103725z148z47z1 <= 7.68
s148 - s185 + 8.880077z148z185z1 <= 7.68
s148 - s255 + 9.105715z148z255z1 <= 7.68
s148 - s18 + 8.889000z148z18z1 <= 7.68
s148 - s18 + 8.889000z148z18z3 <= 7.68
s148 - s25 + 9.112864z148z25z1 <= 7.68
s148 - s210 + 9.124622z148z210z1 <= 7.68
s148 - s210 + 9.124622z148z210z3 <= 7.68
s148 - s213 + 8.909889z148z213z1 <= 7.68
s148 - s313 + 9.127514z148z313z1 <= 7.68
s76 - s119 + 9.877497z76z119z2 <= 8.77
s76 - s169 + 9.904164z76z169z2 <= 8.77
s76 - s161 + 9.947515z76z161z2 <= 8.77
s76 - s47 + 9.917272z76z47z2 <= 8.77
s76 - s25 + 9.947889z76z25z2 <= 8.77
s76 - s213 + 10.079265z76z213z2 <= 8.77
s259 - s119 + 9.853534z259z119z2 <= 8.77
s259 - s169 + 9.880354z259z169z2 <= 8.77
s259 - s161 + 9.923479z259z161z2 <= 8.77
s259 - s47 + 9.896667z259z47z2 <= 8.77
s259 - s25 + 9.925635z259z25z2 <= 8.77
s259 - s213 + 10.097754z259z213z2 <= 8.77
s15 - s83 + 9.806666z15z83z1 <= 8.78
s15 - s6 + 10.066667z15z6z1 <= 8.78
s15 - s265 + 10.100277z15z265z1 <= 8.78
s15 - s47 + 10.093971z15z47z1 <= 8.78
s15 - s185 + 9.910979z15z185z1 <= 8.78
s15 - s255 + 10.100277z15z255z1 <= 8.78
s15 - s18 + 9.915974z15z18z1 <= 8.78
s15 - s25 + 10.120065z15z25z1 <= 8.78
s15 - s210 + 10.133396z15z210z1 <= 8.78
s15 - s213 + 9.920158z15z213z1 <= 8.78
s15 - s313 + 10.140246z15z313z1 <= 8.78
s224 - s83 + 9.798856z224z83z1 <= 8.78
s224 - s6 + 10.053658z224z6z1 <= 8.78
s224 - s265 + 10.087824z224z265z1 <= 8.78
s224 - s47 + 10.080074z224z47z1 <= 8.78
s224 - s185 + 9.927572z224z185z1 <= 8.78
s224 - s255 + 10.086666z224z255z1 <= 8.78
s224 - s18 + 9.932023z224z18z1 <= 8.78
s224 - s25 + 10.107278z224z25z1 <= 8.78
s224 - s210 + 10.120587z224z210z1 <= 8.78
s224 - s213 + 9.934632z224z213z1 <= 8.78
s224 - s313 + 10.127690z224z313z1 <= 8.78
s77 - s119 + 9.849428z77z119z3 <= 8.84
s77 - s312 + 9.873333z77z312z1 <= 8.84
s77 - s312 + 9.873333z77z312z3 <= 8.84
s77 - s169 + 9.873333z77z169z1 <= 8.84
s77 - s161 + 9.912111z77z161z3 <= 8.84
s77 - s6 + 9.882688z77z6z1 <= 8.84
s77 - s6 + 9.882688z77z6z3 <= 8.84
s77 - s265 + 9.907988z77z265z1 <= 8.84
s77 - s47 + 9.916012z77z47z1 <= 8.84
s77 - s185 + 10.220058z77z185z1 <= 8.84
s77 - s255 + 9.917747z77z255z1 <= 8.84
s77 - s18 + 10.226666z77z18z1 <= 8.84
s77 - s18 + 10.226666z77z18z3 <= 8.84
s77 - s25 + 9.928945z77z25z1 <= 8.84
s77 - s210 + 9.941980z77z210z1 <= 8.84
s77 - s210 + 9.941980z77z210z3 <= 8.84
s77 - s213 + 10.233842z77z213z1 <= 8.84
s77 - s313 + 9.947496z77z313z1 <= 8.84
s83 - s265 + 10.182490z83z265z1 <= 8.86
s83 - s47 + 10.173404z83z47z1 <= 8.86
s83 - s185 + 10.000158z83z185z1 <= 8.86
s83 - s255 + 10.180277z83z255z1 <= 8.86
s83 - s18 + 10.003604z83z18z1 <= 8.86
s83 - s25 + 10.201630z83z25z1 <= 8.86
s83 - s210 + 10.214902z83z210z1 <= 8.86
s83 - s213 + 10.003913z83z213z1 <= 8.86
s83 - s313 + 10.222215z83z313z1 <= 8.86
s89 - s47 + 10.129650z89z47z2 <= 8.86
s89 - s25 + 10.160813z89z25z2 <= 8.86
s89 - s213 + 10.058214z89z213z2 <= 8.86
s119 - s169 + 9.917488z119z169z2 <= 8.89
s119 - s161 + 9.960868z119z161z2 <= 8.89
s119 - s161 + 9.960868z119z161z3 <= 8.89
s119 - s6 + 9.923334z119z6z3 <= 8.89
s119 - s47 + 9.956667z119z47z2 <= 8.89
s119 - s18 + 10.283390z119z18z3 <= 8.89
s119 - s25 + 9.971104z119z25z2 <= 8.89
s119 - s210 + 9.984282z119z210z3 <= 8.89
s119 - s213 + 10.290222z119z213z2 <= 8.89
s312 - s169 + 9.921082z312z169z1 <= 8.90
s312 - s161 + 9.938872z312z161z3 <= 8.90
s312 - s6 + 9.947140z312z6z1 <= 8.90
s312 - s6 + 9.947140z312z6z3 <= 8.90
s312 - s265 + 9.952068z312z265z1 <= 8.90
s312 - s47 + 9.974535z312z47z1 <= 8.90
s312 - s255 + 9.972111z312z255z1 <= 8.90
s312 - s18 + 10.313816z312z18z1 <= 8.90
s312 - s18 + 10.313816z312z18z3 <= 8.90
s312 - s25 + 9.972111z312z25z1 <= 8.90
s312 - s210 + 9.983533z312z210z1 <= 8.90
s312 - s210 + 9.983533z312z210z3 <= 8.90
s312 - s213 + 10.321900z312z213z1 <= 8.90
s312 - s313 + 9.986667z312z313z1 <= 8.90
s169 - s6 + 10.026667z169z6z1 <= 9.00
s169 - s265 + 10.035901z169z265z1 <= 9.00
s169 - s47 + 10.053748z169z47z1 <= 9.00
s169 - s47 + 10.053748z169z47z2 <= 9.00
s169 - s255 + 10.052069z169z255z1 <= 9.00
s169 - s25 + 10.056960z169z25z1 <= 9.00
s169 - s25 + 10.056960z169z25z2 <= 9.00
s169 - s210 + 10.069602z169z210z1 <= 9.00
s169 - s213 + 10.427135z169z213z1 <= 9.00
s169 - s213 + 10.427135z169z213z2 <= 9.00
s169 - s313 + 10.074535z169z313z1 <= 9.00
s161 - s47 + 10.116667z161z47z2 <= 9.03
s161 - s25 + 10.095659z161z25z2 <= 9.03
s161 - s210 + 10.102111z161z210z3 <= 9.03
s6 - s265 + 10.115901z6z265z1 <= 9.08
s6 - s47 + 10.113333z6z47z1 <= 9.08
s6 - s255 + 10.115901z6z255z1 <= 9.08
s6 - s25 + 10.133748z6z25z1 <= 9.08
s6 - s210 + 10.146999z6z210z1 <= 9.08
s6 - s210 + 10.146999z6z210z3 <= 9.08
s6 - s313 + 10.154535z6z313z1 <= 9.08
s265 - s47 + 10.263993z265z47z1 <= 9.23
s265 - s255 + 10.256666z265z255z1 <= 9.23
s265 - s25 + 10.251081z265z25z1 <= 9.23
s265 - s210 + 10.263993z265z210z1 <= 9.23
s265 - s313 + 10.270000z265z313z1 <= 9.23
s47 - s255 + 10.299428z47z255z1 <= 9.29
s47 - s25 + 10.327712z47z25z1 <= 9.29
s47 - s25 + 10.327712z47z25z2 <= 9.29
s47 - s210 + 10.338074z47z210z1 <= 9.29
s47 - s313 + 10.347349z47z313z1 <= 9.29
s185 - s18 + 10.309428z185z18z1 <= 9.30
s185 - s213 + 10.329815z185z213z1 <= 9.30
s255 - s25 + 10.338284z255z25z1 <= 9.31
s255 - s210 + 10.348873z255z210z1 <= 9.31
s255 - s313 + 10.358074z255z313z1 <= 9.31
s18 - s213 + 10.391082z18z213z1 <= 9.37
s25 - s210 + 10.393333z25z210z1 <= 9.38
s25 - s313 + 10.401082z25z313z1 <= 9.38
s210 - s313 + 10.479428z210z313z1 <= 9.47

x237x210x1 - 1z237z210z1 <= 0
x237x313x1 - 2z237z313z1 <= 0
x121x312x1 - 1z121z312z1 <= 0
x121x169x1 - 1z121z169z1 <= 0
x121x169x2 - 1z121z169z2 <= 0
x121x161x2 - 1z121z161z2 <= 0
x121x6x1 - 1z121z6z1 <= 0
x121x265x1 - 2z121z265z1 <= 0
x121x47x1 - 1z121z47z1 <= 0
x121x47x2 - 1z121z47z2 <= 0
x121x185x1 - 2z121z185z1 <= 0
x121x255x1 - 2z121z255z1 <= 0
x121x18x1 - 1z121z18z1 <= 0
x121x25x1 - 1z121z25z1 <= 0
x121x25x2 - 1z121z25z2 <= 0
x121x210x1 - 1z121z210z1 <= 0
x121x213x1 - 1z121z213z1 <= 0
x121x213x2 - 1z121z213z2 <= 0
x121x313x1 - 2z121z313z1 <= 0
x171x15x1 - 2z171z15z1 <= 0
x171x224x1 - 2z171z224z1 <= 0
x171x77x1 - 1z171z77z1 <= 0
x171x83x1 - 2z171z83z1 <= 0
x171x312x1 - 1z171z312z1 <= 0
x171x169x1 - 1z171z169z1 <= 0
x171x6x1 - 1z171z6z1 <= 0
x171x265x1 - 2z171z265z1 <= 0
x171x47x1 - 1z171z47z1 <= 0
x171x185x1 - 2z171z185z1 <= 0
x171x255x1 - 2z171z255z1 <= 0
x171x18x1 - 1z171z18z1 <= 0
x171x25x1 - 1z171z25z1 <= 0
x171x210x1 - 1z171z210z1 <= 0
x171x213x1 - 1z171z213z1 <= 0
x171x313x1 - 2z171z313z1 <= 0
x40x161x2 - 1z40z161z2 <= 0
x40x161x3 - 1z40z161z3 <= 0
x40x6x3 - 1z40z6z3 <= 0
x40x47x2 - 1z40z47z2 <= 0
x40x18x3 - 1z40z18z3 <= 0
x40x25x2 - 1z40z25z2 <= 0
x40x210x3 - 1z40z210z3 <= 0
x40x213x2 - 1z40z213z2 <= 0
x32x161x2 - 1z32z161z2 <= 0
x32x47x2 - 1z32z47z2 <= 0
x32x25x2 - 1z32z25z2 <= 0
x32x213x2 - 1z32z213z2 <= 0
x327x161x2 - 1z327z161z2 <= 0
x327x6x1 - 1z327z6z1 <= 0
x327x265x1 - 2z327z265z1 <= 0
x327x47x1 - 1z327z47z1 <= 0
x327x47x2 - 1z327z47z2 <= 0
x327x185x1 - 2z327z185z1 <= 0
x327x255x1 - 2z327z255z1 <= 0
x327x18x1 - 1z327z18z1 <= 0
x327x25x1 - 1z327z25z1 <= 0
x327x25x2 - 1z327z25z2 <= 0
x327x210x1 - 1z327z210z1 <= 0
x327x213x1 - 1z327z213z1 <= 0
x327x213x2 - 1z327z213z2 <= 0
x327x313x1 - 2z327z313z1 <= 0
x78x161x2 - 1z78z161z2 <= 0
x78x6x1 - 1z78z6z1 <= 0
x78x265x1 - 2z78z265z1 <= 0
x78x47x1 - 1z78z47z1 <= 0
x78x47x2 - 1z78z47z2 <= 0
x78x185x1 - 2z78z185z1 <= 0
x78x255x1 - 2z78z255z1 <= 0
x78x18x1 - 1z78z18z1 <= 0
x78x25x1 - 1z78z25z1 <= 0
x78x25x2 - 1z78z25z2 <= 0
x78x210x1 - 1z78z210z1 <= 0
x78x213x1 - 1z78z213z1 <= 0
x78x213x2 - 1z78z213z2 <= 0
x78x313x1 - 2z78z313z1 <= 0
x19x185x1 - 2z19z185z1 <= 0
x19x18x1 - 1z19z18z1 <= 0
x19x18x3 - 1z19z18z3 <= 0
x19x25x1 - 1z19z25z1 <= 0
x19x210x1 - 1z19z210z1 <= 0
x19x210x3 - 1z19z210z3 <= 0
x19x213x1 - 1z19z213z1 <= 0
x19x313x1 - 2z19z313z1 <= 0
x67x18x3 - 1z67z18z3 <= 0
x67x210x3 - 1z67z210z3 <= 0
x148x6x1 - 1z148z6z1 <= 0
x148x6x3 - 1z148z6z3 <= 0
x148x265x1 - 2z148z265z1 <= 0
x148x47x1 - 1z148z47z1 <= 0
x148x185x1 - 2z148z185z1 <= 0
x148x255x1 - 2z148z255z1 <= 0
x148x18x1 - 1z148z18z1 <= 0
x148x18x3 - 1z148z18z3 <= 0
x148x25x1 - 1z148z25z1 <= 0
x148x210x1 - 1z148z210z1 <= 0
x148x210x3 - 1z148z210z3 <= 0
x148x213x1 - 1z148z213z1 <= 0
x148x313x1 - 2z148z313z1 <= 0
x76x119x2 - 1z76z119z2 <= 0
x76x169x2 - 1z76z169z2 <= 0
x76x161x2 - 1z76z161z2 <= 0
x76x47x2 - 1z76z47z2 <= 0
x76x25x2 - 1z76z25z2 <= 0
x76x213x2 - 1z76z213z2 <= 0
x76x0x2 <= 2
x259x119x2 - 1z259z119z2 <= 0
x259x169x2 - 1z259z169z2 <= 0
x259x161x2 - 1z259z161z2 <= 0
x259x47x2 - 1z259z47z2 <= 0
x259x25x2 - 1z259z25z2 <= 0
x259x213x2 - 1z259z213z2 <= 0
x259x0x2 <= 2
x15x83x1 - 2z15z83z1 <= 0
x15x6x1 - 1z15z6z1 <= 0
x15x265x1 - 2z15z265z1 <= 0
x15x47x1 - 1z15z47z1 <= 0
x15x185x1 - 2z15z185z1 <= 0
x15x255x1 - 2z15z255z1 <= 0
x15x18x1 - 1z15z18z1 <= 0
x15x25x1 - 1z15z25z1 <= 0
x15x210x1 - 1z15z210z1 <= 0
x15x213x1 - 1z15z213z1 <= 0
x15x313x1 - 2z15z313z1 <= 0
x15x0x1 <= 2
x224x83x1 - 2z224z83z1 <= 0
x224x6x1 - 1z224z6z1 <= 0
x224x265x1 - 2z224z265z1 <= 0
x224x47x1 - 1z224z47z1 <= 0
x224x185x1 - 2z224z185z1 <= 0
x224x255x1 - 2z224z255z1 <= 0
x224x18x1 - 1z224z18z1 <= 0
x224x25x1 - 1z224z25z1 <= 0
x224x210x1 - 1z224z210z1 <= 0
x224x213x1 - 1z224z213z1 <= 0
x224x313x1 - 2z224z313z1 <= 0
x224x0x1 <= 2
x77x119x3 - 1z77z119z3 <= 0
x77x312x1 - 1z77z312z1 <= 0
x77x312x3 - 1z77z312z3 <= 0
x77x169x1 - 1z77z169z1 <= 0
x77x161x3 - 1z77z161z3 <= 0
x77x6x1 - 1z77z6z1 <= 0
x77x6x3 - 1z77z6z3 <= 0
x77x265x1 - 2z77z265z1 <= 0
x77x47x1 - 1z77z47z1 <= 0
x77x185x1 - 2z77z185z1 <= 0
x77x255x1 - 2z77z255z1 <= 0
x77x18x1 - 1z77z18z1 <= 0
x77x18x3 - 1z77z18z3 <= 0
x77x25x1 - 1z77z25z1 <= 0
x77x210x1 - 1z77z210z1 <= 0
x77x210x3 - 1z77z210z3 <= 0
x77x213x1 - 1z77z213z1 <= 0
x77x313x1 - 2z77z313z1 <= 0
x77x0x1 <= 1
x77x0x3 <= 1
x83x265x1 - 2z83z265z1 <= 0
x83x47x1 - 1z83z47z1 <= 0
x83x185x1 - 2z83z185z1 <= 0
x83x255x1 - 2z83z255z1 <= 0
x83x18x1 - 1z83z18z1 <= 0
x83x25x1 - 1z83z25z1 <= 0
x83x210x1 - 1z83z210z1 <= 0
x83x213x1 - 1z83z213z1 <= 0
x83x313x1 - 2z83z313z1 <= 0
x83x0x1 <= 2
x89x47x2 - 1z89z47z2 <= 0
x89x25x2 - 1z89z25z2 <= 0
x89x213x2 - 1z89z213z2 <= 0
x89x0x2 <= 2
x119x169x2 - 1z119z169z2 <= 0
x119x161x2 - 1z119z161z2 <= 0
x119x161x3 - 1z119z161z3 <= 0
x119x6x3 - 1z119z6z3 <= 0
x119x47x2 - 1z119z47z2 <= 0
x119x18x3 - 1z119z18z3 <= 0
x119x25x2 - 1z119z25z2 <= 0
x119x210x3 - 1z119z210z3 <= 0
x119x213x2 - 1z119z213z2 <= 0
x119x0x2 <= 1
x119x0x3 <= 1
x312x169x1 - 1z312z169z1 <= 0
x312x161x3 - 1z312z161z3 <= 0
x312x6x1 - 1z312z6z1 <= 0
x312x6x3 - 1z312z6z3 <= 0
x312x265x1 - 2z312z265z1 <= 0
x312x47x1 - 1z312z47z1 <= 0
x312x255x1 - 2z312z255z1 <= 0
x312x18x1 - 1z312z18z1 <= 0
x312x18x3 - 1z312z18z3 <= 0
x312x25x1 - 1z312z25z1 <= 0
x312x210x1 - 1z312z210z1 <= 0
x312x210x3 - 1z312z210z3 <= 0
x312x213x1 - 1z312z213z1 <= 0
x312x313x1 - 2z312z313z1 <= 0
x312x0x1 <= 1
x312x0x3 <= 1
x169x6x1 - 1z169z6z1 <= 0
x169x265x1 - 2z169z265z1 <= 0
x169x47x1 - 1z169z47z1 <= 0
x169x47x2 - 1z169z47z2 <= 0
x169x255x1 - 2z169z255z1 <= 0
x169x25x1 - 1z169z25z1 <= 0
x169x25x2 - 1z169z25z2 <= 0
x169x210x1 - 1z169z210z1 <= 0
x169x213x1 - 1z169z213z1 <= 0
x169x213x2 - 1z169z213z2 <= 0
x169x313x1 - 2z169z313z1 <= 0
x169x0x1 <= 1
x169x0x2 <= 1
x161x47x2 - 1z161z47z2 <= 0
x161x25x2 - 1z161z25z2 <= 0
x161x210x3 - 1z161z210z3 <= 0
x161x0x2 <= 1
x161x0x3 <= 1
x6x265x1 - 2z6z265z1 <= 0
x6x47x1 - 1z6z47z1 <= 0
x6x255x1 - 2z6z255z1 <= 0
x6x25x1 - 1z6z25z1 <= 0
x6x210x1 - 1z6z210z1 <= 0
x6x210x3 - 1z6z210z3 <= 0
x6x313x1 - 2z6z313z1 <= 0
x6x0x1 <= 1
x6x0x3 <= 1
x265x47x1 - 1z265z47z1 <= 0
x265x255x1 - 2z265z255z1 <= 0
x265x25x1 - 1z265z25z1 <= 0
x265x210x1 - 1z265z210z1 <= 0
x265x313x1 - 2z265z313z1 <= 0
x265x0x1 <= 2
x47x255x1 - 2z47z255z1 <= 0
x47x25x1 - 1z47z25z1 <= 0
x47x25x2 - 1z47z25z2 <= 0
x47x210x1 - 1z47z210z1 <= 0
x47x313x1 - 2z47z313z1 <= 0
x47x0x1 <= 1
x47x0x2 <= 1
x185x18x1 - 1z185z18z1 <= 0
x185x213x1 - 1z185z213z1 <= 0
x185x0x1 <= 2
x255x25x1 - 1z255z25z1 <= 0
x255x210x1 - 1z255z210z1 <= 0
x255x313x1 - 2z255z313z1 <= 0
x255x0x1 <= 2
x18x213x1 - 1z18z213z1 <= 0
x18x0x1 <= 1
x18x0x3 <= 1
x25x210x1 - 1z25z210z1 <= 0
x25x313x1 - 2z25z313z1 <= 0
x25x0x1 <= 1
x25x0x2 <= 1
x210x313x1 - 2z210z313z1 <= 0
x210x0x1 <= 1
x210x0x3 <= 1
x213x0x1 <= 1
x213x0x2 <= 1
x313x0x1 <= 2

s15 - 6.00z171z15z1 >= 0
s224 - 6.00z171z224z1 >= 0
s77 - 6.00z171z77z1 >= 0
s83 - 6.00z171z83z1 >= 0
s83 - 6.00z15z83z1 >= 0
s83 - 6.00z224z83z1 >= 0
s119 - 6.00z76z119z2 >= 0
s119 - 6.00z259z119z2 >= 0
s119 - 6.00z77z119z3 >= 0
s312 - 6.00z121z312z1 >= 0
s312 - 6.00z171z312z1 >= 0
s312 - 6.00z77z312z1 >= 0
s312 - 6.00z77z312z3 >= 0
s169 - 6.00z121z169z1 >= 0
s169 - 6.00z121z169z2 >= 0
s169 - 6.00z171z169z1 >= 0
s169 - 6.00z76z169z2 >= 0
s169 - 6.00z259z169z2 >= 0
s169 - 6.00z77z169z1 >= 0
s169 - 6.00z119z169z2 >= 0
s169 - 6.00z312z169z1 >= 0
s161 - 6.00z121z161z2 >= 0
s161 - 6.00z40z161z2 >= 0
s161 - 6.00z40z161z3 >= 0
s161 - 6.00z32z161z2 >= 0
s161 - 6.00z327z161z2 >= 0
s161 - 6.00z78z161z2 >= 0
s161 - 6.00z76z161z2 >= 0
s161 - 6.00z259z161z2 >= 0
s161 - 6.00z77z161z3 >= 0
s161 - 6.00z119z161z2 >= 0
s161 - 6.00z119z161z3 >= 0
s161 - 6.00z312z161z3 >= 0
s6 - 6.00z121z6z1 >= 0
s6 - 6.00z171z6z1 >= 0
s6 - 6.00z40z6z3 >= 0
s6 - 6.00z327z6z1 >= 0
s6 - 6.00z78z6z1 >= 0
s6 - 6.00z148z6z1 >= 0
s6 - 6.00z148z6z3 >= 0
s6 - 6.00z15z6z1 >= 0
s6 - 6.00z224z6z1 >= 0
s6 - 6.00z77z6z1 >= 0
s6 - 6.00z77z6z3 >= 0
s6 - 6.00z119z6z3 >= 0
s6 - 6.00z312z6z1 >= 0
s6 - 6.00z312z6z3 >= 0
s6 - 6.00z169z6z1 >= 0
s265 - 6.00z121z265z1 >= 0
s265 - 6.00z171z265z1 >= 0
s265 - 6.00z327z265z1 >= 0
s265 - 6.00z78z265z1 >= 0
s265 - 6.00z148z265z1 >= 0
s265 - 6.00z15z265z1 >= 0
s265 - 6.00z224z265z1 >= 0
s265 - 6.00z77z265z1 >= 0
s265 - 6.00z83z265z1 >= 0
s265 - 6.00z312z265z1 >= 0
s265 - 6.00z169z265z1 >= 0
s265 - 6.00z6z265z1 >= 0
s47 - 6.00z121z47z1 >= 0
s47 - 6.00z121z47z2 >= 0
s47 - 6.00z171z47z1 >= 0
s47 - 6.00z40z47z2 >= 0
s47 - 6.00z32z47z2 >= 0
s47 - 6.00z327z47z1 >= 0
s47 - 6.00z327z47z2 >= 0
s47 - 6.00z78z47z1 >= 0
s47 - 6.00z78z47z2 >= 0
s47 - 6.00z148z47z1 >= 0
s47 - 6.00z76z47z2 >= 0
s47 - 6.00z259z47z2 >= 0
s47 - 6.00z15z47z1 >= 0
s47 - 6.00z224z47z1 >= 0
s47 - 6.00z77z47z1 >= 0
s47 - 6.00z83z47z1 >= 0
s47 - 6.00z89z47z2 >= 0
s47 - 6.00z119z47z2 >= 0
s47 - 6.00z312z47z1 >= 0
s47 - 6.00z169z47z1 >= 0
s47 - 6.00z169z47z2 >= 0
s47 - 6.00z161z47z2 >= 0
s47 - 6.00z6z47z1 >= 0
s47 - 6.00z265z47z1 >= 0
s185 - 6.00z121z185z1 >= 0
s185 - 6.00z171z185z1 >= 0
s185 - 6.00z327z185z1 >= 0
s185 - 6.00z78z185z1 >= 0
s185 - 6.00z19z185z1 >= 0
s185 - 6.00z148z185z1 >= 0
s185 - 6.00z15z185z1 >= 0
s185 - 6.00z224z185z1 >= 0
s185 - 6.00z77z185z1 >= 0
s185 - 6.00z83z185z1 >= 0
s255 - 6.00z121z255z1 >= 0
s255 - 6.00z171z255z1 >= 0
s255 - 6.00z327z255z1 >= 0
s255 - 6.00z78z255z1 >= 0
s255 - 6.00z148z255z1 >= 0
s255 - 6.00z15z255z1 >= 0
s255 - 6.00z224z255z1 >= 0
s255 - 6.00z77z255z1 >= 0
s255 - 6.00z83z255z1 >= 0
s255 - 6.00z312z255z1 >= 0
s255 - 6.00z169z255z1 >= 0
s255 - 6.00z6z255z1 >= 0
s255 - 6.00z265z255z1 >= 0
s255 - 6.00z47z255z1 >= 0
s18 - 6.00z121z18z1 >= 0
s18 - 6.00z171z18z1 >= 0
s18 - 6.00z40z18z3 >= 0
s18 - 6.00z327z18z1 >= 0
s18 - 6.00z78z18z1 >= 0
s18 - 6.00z19z18z1 >= 0
s18 - 6.00z19z18z3 >= 0
s18 - 6.00z67z18z3 >= 0
s18 - 6.00z148z18z1 >= 0
s18 - 6.00z148z18z3 >= 0
s18 - 6.00z15z18z1 >= 0
s18 - 6.00z224z18z1 >= 0
s18 - 6.00z77z18z1 >= 0
s18 - 6.00z77z18z3 >= 0
s18 - 6.00z83z18z1 >= 0
s18 - 6.00z119z18z3 >= 0
s18 - 6.00z312z18z1 >= 0
s18 - 6.00z312z18z3 >= 0
s18 - 6.00z185z18z1 >= 0
s25 - 6.00z121z25z1 >= 0
s25 - 6.00z121z25z2 >= 0
s25 - 6.00z171z25z1 >= 0
s25 - 6.00z40z25z2 >= 0
s25 - 6.00z32z25z2 >= 0
s25 - 6.00z327z25z1 >= 0
s25 - 6.00z327z25z2 >= 0
s25 - 6.00z78z25z1 >= 0
s25 - 6.00z78z25z2 >= 0
s25 - 6.00z19z25z1 >= 0
s25 - 6.00z148z25z1 >= 0
s25 - 6.00z76z25z2 >= 0
s25 - 6.00z259z25z2 >= 0
s25 - 6.00z15z25z1 >= 0
s25 - 6.00z224z25z1 >= 0
s25 - 6.00z77z25z1 >= 0
s25 - 6.00z83z25z1 >= 0
s25 - 6.00z89z25z2 >= 0
s25 - 6.00z119z25z2 >= 0
s25 - 6.00z312z25z1 >= 0
s25 - 6.00z169z25z1 >= 0
s25 - 6.00z169z25z2 >= 0
s25 - 6.00z161z25z2 >= 0
s25 - 6.00z6z25z1 >= 0
s25 - 6.00z265z25z1 >= 0
s25 - 6.00z47z25z1 >= 0
s25 - 6.00z47z25z2 >= 0
s25 - 6.00z255z25z1 >= 0
s210 - 6.00z237z210z1 >= 0
s210 - 6.00z121z210z1 >= 0
s210 - 6.00z171z210z1 >= 0
s210 - 6.00z40z210z3 >= 0
s210 - 6.00z327z210z1 >= 0
s210 - 6.00z78z210z1 >= 0
s210 - 6.00z19z210z1 >= 0
s210 - 6.00z19z210z3 >= 0
s210 - 6.00z67z210z3 >= 0
s210 - 6.00z148z210z1 >= 0
s210 - 6.00z148z210z3 >= 0
s210 - 6.00z15z210z1 >= 0
s210 - 6.00z224z210z1 >= 0
s210 - 6.00z77z210z1 >= 0
s210 - 6.00z77z210z3 >= 0
s210 - 6.00z83z210z1 >= 0
s210 - 6.00z119z210z3 >= 0
s210 - 6.00z312z210z1 >= 0
s210 - 6.00z312z210z3 >= 0
s210 - 6.00z169z210z1 >= 0
s210 - 6.00z161z210z3 >= 0
s210 - 6.00z6z210z1 >= 0
s210 - 6.00z6z210z3 >= 0
s210 - 6.00z265z210z1 >= 0
s210 - 6.00z47z210z1 >= 0
s210 - 6.00z255z210z1 >= 0
s210 - 6.00z25z210z1 >= 0
s213 - 6.00z121z213z1 >= 0
s213 - 6.00z121z213z2 >= 0
s213 - 6.00z171z213z1 >= 0
s213 - 6.00z40z213z2 >= 0
s213 - 6.00z32z213z2 >= 0
s213 - 6.00z327z213z1 >= 0
s213 - 6.00z327z213z2 >= 0
s213 - 6.00z78z213z1 >= 0
s213 - 6.00z78z213z2 >= 0
s213 - 6.00z19z213z1 >= 0
s213 - 6.00z148z213z1 >= 0
s213 - 6.00z76z213z2 >= 0
s213 - 6.00z259z213z2 >= 0
s213 - 6.00z15z213z1 >= 0
s213 - 6.00z224z213z1 >= 0
s213 - 6.00z77z213z1 >= 0
s213 - 6.00z83z213z1 >= 0
s213 - 6.00z89z213z2 >= 0
s213 - 6.00z119z213z2 >= 0
s213 - 6.00z312z213z1 >= 0
s213 - 6.00z169z213z1 >= 0
s213 - 6.00z169z213z2 >= 0
s213 - 6.00z185z213z1 >= 0
s213 - 6.00z18z213z1 >= 0
s313 - 6.00z237z313z1 >= 0
s313 - 6.00z121z313z1 >= 0
s313 - 6.00z171z313z1 >= 0
s313 - 6.00z327z313z1 >= 0
s313 - 6.00z78z313z1 >= 0
s313 - 6.00z19z313z1 >= 0
s313 - 6.00z148z313z1 >= 0
s313 - 6.00z15z313z1 >= 0
s313 - 6.00z224z313z1 >= 0
s313 - 6.00z77z313z1 >= 0
s313 - 6.00z83z313z1 >= 0
s313 - 6.00z312z313z1 >= 0
s313 - 6.00z169z313z1 >= 0
s313 - 6.00z6z313z1 >= 0
s313 - 6.00z265z313z1 >= 0
s313 - 6.00z47z313z1 >= 0
s313 - 6.00z255z313z1 >= 0
s313 - 6.00z25z313z1 >= 0
s313 - 6.00z210z313z1 >= 0

Bounds
s177 = 8.264218
s237 = 8.198549
s39 = 8.414594
s211 = 8.462939
s182 = 4.370000
s24 = 6.000000
s121 = 7.409430
s171 = 6.934980
s40 = 7.435330
s32 = 7.460000
s327 = 7.429210
s78 = 7.462690
s19 = 7.767780
s28 = 8.080910
s67 = 7.817510
s148 = 7.680300
7.770000 <= s76 <= 8.770000
7.770000 <= s259 <= 8.770000
7.780000 <= s15 <= 8.780000
7.780000 <= s224 <= 8.780000
7.840000 <= s77 <= 8.840000
7.860000 <= s83 <= 8.860000
7.860000 <= s89 <= 8.860000
7.890000 <= s119 <= 8.890000
7.900000 <= s312 <= 8.900000
8.000000 <= s169 <= 9.000000
8.030000 <= s161 <= 9.030000
8.080000 <= s6 <= 9.080000
8.230000 <= s265 <= 9.230000
8.290000 <= s47 <= 9.290000
8.300000 <= s185 <= 9.300000
8.310000 <= s255 <= 9.310000
8.370000 <= s18 <= 9.370000
8.380000 <= s25 <= 9.380000
8.470000 <= s210 <= 9.470000
8.470000 <= s213 <= 9.470000
8.500000 <= s313 <= 9.500000

General

x237x210x1 x237x313x1 




x121x312x1 x121x169x1 x121x169x2 x121x161x2 x121x6x1 x121x265x1 x121x47x1 x121x47x2 x121x185x1 x121x255x1 x121x18x1 x121x25x1 x121x25x2 x121x210x1 x121x213x1 x121x213x2 x121x313x1 
x171x15x1 x171x224x1 x171x77x1 x171x83x1 x171x312x1 x171x169x1 x171x6x1 x171x265x1 x171x47x1 x171x185x1 x171x255x1 x171x18x1 x171x25x1 x171x210x1 x171x213x1 x171x313x1 
x40x161x2 x40x161x3 x40x6x3 x40x47x2 x40x18x3 x40x25x2 x40x210x3 x40x213x2 
x32x161x2 x32x47x2 x32x25x2 x32x213x2 
x327x161x2 x327x6x1 x327x265x1 x327x47x1 x327x47x2 x327x185x1 x327x255x1 x327x18x1 x327x25x1 x327x25x2 x327x210x1 x327x213x1 x327x213x2 x327x313x1 
x78x161x2 x78x6x1 x78x265x1 x78x47x1 x78x47x2 x78x185x1 x78x255x1 x78x18x1 x78x25x1 x78x25x2 x78x210x1 x78x213x1 x78x213x2 x78x313x1 
x19x185x1 x19x18x1 x19x18x3 x19x25x1 x19x210x1 x19x210x3 x19x213x1 x19x313x1 

x67x18x3 x67x210x3 
x148x6x1 x148x6x3 x148x265x1 x148x47x1 x148x185x1 x148x255x1 x148x18x1 x148x18x3 x148x25x1 x148x210x1 x148x210x3 x148x213x1 x148x313x1 
x76x119x2 x76x169x2 x76x161x2 x76x47x2 x76x25x2 x76x213x2 x76x0x2 
x259x119x2 x259x169x2 x259x161x2 x259x47x2 x259x25x2 x259x213x2 x259x0x2 
x15x83x1 x15x6x1 x15x265x1 x15x47x1 x15x185x1 x15x255x1 x15x18x1 x15x25x1 x15x210x1 x15x213x1 x15x313x1 x15x0x1 
x224x83x1 x224x6x1 x224x265x1 x224x47x1 x224x185x1 x224x255x1 x224x18x1 x224x25x1 x224x210x1 x224x213x1 x224x313x1 x224x0x1 
x77x119x3 x77x312x1 x77x312x3 x77x169x1 x77x161x3 x77x6x1 x77x6x3 x77x265x1 x77x47x1 x77x185x1 x77x255x1 x77x18x1 x77x18x3 x77x25x1 x77x210x1 x77x210x3 x77x213x1 x77x313x1 x77x0x1 x77x0x3 
x83x265x1 x83x47x1 x83x185x1 x83x255x1 x83x18x1 x83x25x1 x83x210x1 x83x213x1 x83x313x1 x83x0x1 
x89x47x2 x89x25x2 x89x213x2 x89x0x2 
x119x169x2 x119x161x2 x119x161x3 x119x6x3 x119x47x2 x119x18x3 x119x25x2 x119x210x3 x119x213x2 x119x0x2 x119x0x3 
x312x169x1 x312x161x3 x312x6x1 x312x6x3 x312x265x1 x312x47x1 x312x255x1 x312x18x1 x312x18x3 x312x25x1 x312x210x1 x312x210x3 x312x213x1 x312x313x1 x312x0x1 x312x0x3 
x169x6x1 x169x265x1 x169x47x1 x169x47x2 x169x255x1 x169x25x1 x169x25x2 x169x210x1 x169x213x1 x169x213x2 x169x313x1 x169x0x1 x169x0x2 
x161x47x2 x161x25x2 x161x210x3 x161x0x2 x161x0x3 
x6x265x1 x6x47x1 x6x255x1 x6x25x1 x6x210x1 x6x210x3 x6x313x1 x6x0x1 x6x0x3 
x265x47x1 x265x255x1 x265x25x1 x265x210x1 x265x313x1 x265x0x1 
x47x255x1 x47x25x1 x47x25x2 x47x210x1 x47x313x1 x47x0x1 x47x0x2 
x185x18x1 x185x213x1 x185x0x1 
x255x25x1 x255x210x1 x255x313x1 x255x0x1 
x18x213x1 x18x0x1 x18x0x3 
x25x210x1 x25x313x1 x25x0x1 x25x0x2 
x210x313x1 x210x0x1 x210x0x3 
x213x0x1 x213x0x2 
x313x0x1 

Binaries
y76 y259 y15 y224 y77 y83 y89 y119 y312 y169 y161 y6 y265 y47 y185 y255 y18 y25 y210 y213 y313 

z237z210z1 z237z313z1 




z121z312z1 z121z169z1 z121z169z2 z121z161z2 z121z6z1 z121z265z1 z121z47z1 z121z47z2 z121z185z1 z121z255z1 z121z18z1 z121z25z1 z121z25z2 z121z210z1 z121z213z1 z121z213z2 z121z313z1 
z171z15z1 z171z224z1 z171z77z1 z171z83z1 z171z312z1 z171z169z1 z171z6z1 z171z265z1 z171z47z1 z171z185z1 z171z255z1 z171z18z1 z171z25z1 z171z210z1 z171z213z1 z171z313z1 
z40z161z2 z40z161z3 z40z6z3 z40z47z2 z40z18z3 z40z25z2 z40z210z3 z40z213z2 
z32z161z2 z32z47z2 z32z25z2 z32z213z2 
z327z161z2 z327z6z1 z327z265z1 z327z47z1 z327z47z2 z327z185z1 z327z255z1 z327z18z1 z327z25z1 z327z25z2 z327z210z1 z327z213z1 z327z213z2 z327z313z1 
z78z161z2 z78z6z1 z78z265z1 z78z47z1 z78z47z2 z78z185z1 z78z255z1 z78z18z1 z78z25z1 z78z25z2 z78z210z1 z78z213z1 z78z213z2 z78z313z1 
z19z185z1 z19z18z1 z19z18z3 z19z25z1 z19z210z1 z19z210z3 z19z213z1 z19z313z1 

z67z18z3 z67z210z3 
z148z6z1 z148z6z3 z148z265z1 z148z47z1 z148z185z1 z148z255z1 z148z18z1 z148z18z3 z148z25z1 z148z210z1 z148z210z3 z148z213z1 z148z313z1 
z76z119z2 z76z169z2 z76z161z2 z76z47z2 z76z25z2 z76z213z2 
z259z119z2 z259z169z2 z259z161z2 z259z47z2 z259z25z2 z259z213z2 
z15z83z1 z15z6z1 z15z265z1 z15z47z1 z15z185z1 z15z255z1 z15z18z1 z15z25z1 z15z210z1 z15z213z1 z15z313z1 
z224z83z1 z224z6z1 z224z265z1 z224z47z1 z224z185z1 z224z255z1 z224z18z1 z224z25z1 z224z210z1 z224z213z1 z224z313z1 
z77z119z3 z77z312z1 z77z312z3 z77z169z1 z77z161z3 z77z6z1 z77z6z3 z77z265z1 z77z47z1 z77z185z1 z77z255z1 z77z18z1 z77z18z3 z77z25z1 z77z210z1 z77z210z3 z77z213z1 z77z313z1 
z83z265z1 z83z47z1 z83z185z1 z83z255z1 z83z18z1 z83z25z1 z83z210z1 z83z213z1 z83z313z1 
z89z47z2 z89z25z2 z89z213z2 
z119z169z2 z119z161z2 z119z161z3 z119z6z3 z119z47z2 z119z18z3 z119z25z2 z119z210z3 z119z213z2 
z312z169z1 z312z161z3 z312z6z1 z312z6z3 z312z265z1 z312z47z1 z312z255z1 z312z18z1 z312z18z3 z312z25z1 z312z210z1 z312z210z3 z312z213z1 z312z313z1 
z169z6z1 z169z265z1 z169z47z1 z169z47z2 z169z255z1 z169z25z1 z169z25z2 z169z210z1 z169z213z1 z169z213z2 z169z313z1 
z161z47z2 z161z25z2 z161z210z3 
z6z265z1 z6z47z1 z6z255z1 z6z25z1 z6z210z1 z6z210z3 z6z313z1 
z265z47z1 z265z255z1 z265z25z1 z265z210z1 z265z313z1 
z47z255z1 z47z25z1 z47z25z2 z47z210z1 z47z313z1 
z185z18z1 z185z213z1 
z255z25z1 z255z210z1 z255z313z1 
z18z213z1 
z25z210z1 z25z313z1 
z210z313z1 



End